p cnf 130 94
d 0.875 0.125
d 0.875 0.125
d 0.875 0.125
d 0.875 0.125
d 0.875 0.125
d 0.875 0.125
d 0.875 0.125
d 0.875 0.125
d 0.875 0.125
d 0.875 0.125
d 0.875 0.125
d 0.875 0.125
d 0.875 0.125
d 0.875 0.125
d 0.875 0.125
d 0.875 0.125
d 0.875 0.125
d 0.875 0.125
d 0.875 0.125
d 0.875 0.125
d 0.875 0.125
d 0.875 0.125
d 0.875 0.125
d 0.875 0.125
d 0.875 0.125
d 0.875 0.125
d 0.875 0.125
d 0.875 0.125
d 0.875 0.125
d 0.875 0.125
d 0.875 0.125
d 0.875 0.125
d 0.875 0.125
d 0.875 0.125
d 0.875 0.125
d 0.875 0.125
d 0.875 0.125
d 0.875 0.125
d 0.875 0.125
d 0.875 0.125
d 0.875 0.125
d 0.875 0.125
d 0.875 0.125
d 0.875 0.125
d 0.875 0.125
d 0.875 0.125
95
-125
92 -117 -0
117 -92 -0
101 -103 -2
103 -101 -2
100 -120 -4
120 -100 -4
105 -100 -6
100 -105 -6
112 -107 -8
107 -112 -8
124 -118 -10
118 -124 -10
114 -97 -12
97 -114 -12
117 -111 -14
111 -117 -14
115 -94 -16
94 -115 -16
99 -111 -18
111 -99 -18
106 -104 -20
104 -106 -20
96 -122 -22
122 -96 -22
115 -100 -24
100 -115 -24
109 -99 -26
99 -109 -26
129 -116 -28
116 -129 -28
97 -105 -30
105 -97 -30
125 -121 -32
121 -125 -32
124 -120 -34
120 -124 -34
126 -97 -36
97 -126 -36
123 -117 -38
117 -123 -38
100 -124 -40
124 -100 -40
104 -107 -42
107 -104 -42
102 -111 -44
111 -102 -44
119 -92 -46
92 -119 -46
95 -109 -48
109 -95 -48
99 -117 -50
117 -99 -50
92 -106 -52
106 -92 -52
94 -110 -54
110 -94 -54
113 -114 -56
114 -113 -56
100 -101 -58
101 -100 -58
92 -127 -60
127 -92 -60
104 -107 -62
107 -104 -62
121 -117 -64
117 -121 -64
110 -108 -66
108 -110 -66
93 -96 -68
96 -93 -68
123 -128 -70
128 -123 -70
98 -114 -72
114 -98 -72
99 -106 -74
106 -99 -74
121 -109 -76
109 -121 -76
123 -117 -78
117 -123 -78
112 -108 -80
108 -112 -80
129 -100 -82
100 -129 -82
95 -99 -84
99 -95 -84
123 -96 -86
96 -123 -86
92 -128 -88
128 -92 -88
116 -122 -90
122 -116 -90